c nIsolatedPIs 0
c maxPI 32
p cnf 429 1192
c gate 33 2 29 0
2 -33 0
29 -33 0
-2 -29 33 0
c gate 34 1 30 0
1 -34 0
30 -34 0
-1 -30 34 0
c gate 35 33 34 0
33 -35 0
34 -35 0
-33 -34 35 0
c gate 36 -33 -34 0
-33 -36 0
-34 -36 0
33 34 36 0
c gate 37 -35 -36 0
-35 -37 0
-36 -37 0
35 36 37 0
c gate 38 4 26 0
4 -38 0
26 -38 0
-4 -26 38 0
c gate 39 3 27 0
3 -39 0
27 -39 0
-3 -27 39 0
c gate 40 38 39 0
38 -40 0
39 -40 0
-38 -39 40 0
c gate 41 2 28 0
2 -41 0
28 -41 0
-2 -28 41 0
c gate 42 -38 -39 0
-38 -42 0
-39 -42 0
38 39 42 0
c gate 43 -40 -42 0
-40 -43 0
-42 -43 0
40 42 43 0
c gate 44 41 43 0
41 -44 0
43 -44 0
-41 -43 44 0
c gate 45 -40 -44 0
-40 -45 0
-44 -45 0
40 44 45 0
c gate 46 3 28 0
3 -46 0
28 -46 0
-3 -28 46 0
c gate 47 5 26 0
5 -47 0
26 -47 0
-5 -26 47 0
c gate 48 4 27 0
4 -48 0
27 -48 0
-4 -27 48 0
c gate 49 47 48 0
47 -49 0
48 -49 0
-47 -48 49 0
c gate 50 -47 -48 0
-47 -50 0
-48 -50 0
47 48 50 0
c gate 51 -49 -50 0
-49 -51 0
-50 -51 0
49 50 51 0
c gate 52 46 51 0
46 -52 0
51 -52 0
-46 -51 52 0
c gate 53 -46 -51 0
-46 -53 0
-51 -53 0
46 51 53 0
c gate 54 -52 -53 0
-52 -54 0
-53 -54 0
52 53 54 0
c gate 55 -45 54 0
-45 -55 0
54 -55 0
45 -54 55 0
c gate 56 45 -54 0
45 -56 0
-54 -56 0
-45 54 56 0
c gate 57 -55 -56 0
-55 -57 0
-56 -57 0
55 56 57 0
c gate 58 37 57 0
37 -58 0
57 -58 0
-37 -57 58 0
c gate 59 -37 -57 0
-37 -59 0
-57 -59 0
37 57 59 0
c gate 60 -58 -59 0
-58 -60 0
-59 -60 0
58 59 60 0
c gate 61 5 25 0
5 -61 0
25 -61 0
-5 -25 61 0
c gate 62 7 23 0
7 -62 0
23 -62 0
-7 -23 62 0
c gate 63 6 24 0
6 -63 0
24 -63 0
-6 -24 63 0
c gate 64 62 63 0
62 -64 0
63 -64 0
-62 -63 64 0
c gate 65 -62 -63 0
-62 -65 0
-63 -65 0
62 63 65 0
c gate 66 -64 -65 0
-64 -66 0
-65 -66 0
64 65 66 0
c gate 67 61 66 0
61 -67 0
66 -67 0
-61 -66 67 0
c gate 68 -61 -66 0
-61 -68 0
-66 -68 0
61 66 68 0
c gate 69 -67 -68 0
-67 -69 0
-68 -69 0
67 68 69 0
c gate 70 9 20 0
9 -70 0
20 -70 0
-9 -20 70 0
c gate 71 8 21 0
8 -71 0
21 -71 0
-8 -21 71 0
c gate 72 70 71 0
70 -72 0
71 -72 0
-70 -71 72 0
c gate 73 7 22 0
7 -73 0
22 -73 0
-7 -22 73 0
c gate 74 -70 -71 0
-70 -74 0
-71 -74 0
70 71 74 0
c gate 75 -72 -74 0
-72 -75 0
-74 -75 0
72 74 75 0
c gate 76 73 75 0
73 -76 0
75 -76 0
-73 -75 76 0
c gate 77 -72 -76 0
-72 -77 0
-76 -77 0
72 76 77 0
c gate 78 69 -77 0
69 -78 0
-77 -78 0
-69 77 78 0
c gate 79 6 23 0
6 -79 0
23 -79 0
-6 -23 79 0
c gate 80 5 24 0
5 -80 0
24 -80 0
-5 -24 80 0
c gate 81 79 80 0
79 -81 0
80 -81 0
-79 -80 81 0
c gate 82 4 25 0
4 -82 0
25 -82 0
-4 -25 82 0
c gate 83 -79 -80 0
-79 -83 0
-80 -83 0
79 80 83 0
c gate 84 -81 -83 0
-81 -84 0
-83 -84 0
81 83 84 0
c gate 85 82 84 0
82 -85 0
84 -85 0
-82 -84 85 0
c gate 86 -81 -85 0
-81 -86 0
-85 -86 0
81 85 86 0
c gate 87 -69 77 0
-69 -87 0
77 -87 0
69 -77 87 0
c gate 88 -78 -87 0
-78 -88 0
-87 -88 0
78 87 88 0
c gate 89 -86 88 0
-86 -89 0
88 -89 0
86 -88 89 0
c gate 90 -78 -89 0
-78 -90 0
-89 -90 0
78 89 90 0
c gate 91 60 -90 0
60 -91 0
-90 -91 0
-60 90 91 0
c gate 92 3 26 0
3 -92 0
26 -92 0
-3 -26 92 0
c gate 93 2 27 0
2 -93 0
27 -93 0
-2 -27 93 0
c gate 94 92 93 0
92 -94 0
93 -94 0
-92 -93 94 0
c gate 95 1 28 0
1 -95 0
28 -95 0
-1 -28 95 0
c gate 96 -92 -93 0
-92 -96 0
-93 -96 0
92 93 96 0
c gate 97 -94 -96 0
-94 -97 0
-96 -97 0
94 96 97 0
c gate 98 95 97 0
95 -98 0
97 -98 0
-95 -97 98 0
c gate 99 -94 -98 0
-94 -99 0
-98 -99 0
94 98 99 0
c gate 100 -41 -43 0
-41 -100 0
-43 -100 0
41 43 100 0
c gate 101 -44 -100 0
-44 -101 0
-100 -101 0
44 100 101 0
c gate 102 -99 101 0
-99 -102 0
101 -102 0
99 -101 102 0
c gate 103 1 29 0
1 -103 0
29 -103 0
-1 -29 103 0
c gate 104 99 -101 0
99 -104 0
-101 -104 0
-99 101 104 0
c gate 105 -102 -104 0
-102 -105 0
-104 -105 0
102 104 105 0
c gate 106 103 105 0
103 -106 0
105 -106 0
-103 -105 106 0
c gate 107 -102 -106 0
-102 -107 0
-106 -107 0
102 106 107 0
c gate 108 -60 90 0
-60 -108 0
90 -108 0
60 -90 108 0
c gate 109 -91 -108 0
-91 -109 0
-108 -109 0
91 108 109 0
c gate 110 -107 109 0
-107 -110 0
109 -110 0
107 -109 110 0
c gate 111 -91 -110 0
-91 -111 0
-110 -111 0
91 110 111 0
c gate 112 35 -111 0
35 -112 0
-111 -112 0
-35 111 112 0
c gate 113 11 17 0
11 -113 0
17 -113 0
-11 -17 113 0
c gate 114 10 18 0
10 -114 0
18 -114 0
-10 -18 114 0
c gate 115 113 114 0
113 -115 0
114 -115 0
-113 -114 115 0
c gate 116 9 19 0
9 -116 0
19 -116 0
-9 -19 116 0
c gate 117 -113 -114 0
-113 -117 0
-114 -117 0
113 114 117 0
c gate 118 -115 -117 0
-115 -118 0
-117 -118 0
115 117 118 0
c gate 119 116 118 0
116 -119 0
118 -119 0
-116 -118 119 0
c gate 120 -115 -119 0
-115 -120 0
-119 -120 0
115 119 120 0
c gate 121 10 19 0
10 -121 0
19 -121 0
-10 -19 121 0
c gate 122 12 17 0
12 -122 0
17 -122 0
-12 -17 122 0
c gate 123 11 18 0
11 -123 0
18 -123 0
-11 -18 123 0
c gate 124 122 123 0
122 -124 0
123 -124 0
-122 -123 124 0
c gate 125 -122 -123 0
-122 -125 0
-123 -125 0
122 123 125 0
c gate 126 -124 -125 0
-124 -126 0
-125 -126 0
124 125 126 0
c gate 127 121 126 0
121 -127 0
126 -127 0
-121 -126 127 0
c gate 128 -121 -126 0
-121 -128 0
-126 -128 0
121 126 128 0
c gate 129 -127 -128 0
-127 -129 0
-128 -129 0
127 128 129 0
c gate 130 -120 129 0
-120 -130 0
129 -130 0
120 -129 130 0
c gate 131 -73 -75 0
-73 -131 0
-75 -131 0
73 75 131 0
c gate 132 -76 -131 0
-76 -132 0
-131 -132 0
76 131 132 0
c gate 133 120 -129 0
120 -133 0
-129 -133 0
-120 129 133 0
c gate 134 -130 -133 0
-130 -134 0
-133 -134 0
130 133 134 0
c gate 135 132 134 0
132 -135 0
134 -135 0
-132 -134 135 0
c gate 136 -130 -135 0
-130 -136 0
-135 -136 0
130 135 136 0
c gate 137 8 22 0
8 -137 0
22 -137 0
-8 -22 137 0
c gate 138 10 20 0
10 -138 0
20 -138 0
-10 -20 138 0
c gate 139 9 21 0
9 -139 0
21 -139 0
-9 -21 139 0
c gate 140 -138 -139 0
-138 -140 0
-139 -140 0
138 139 140 0
c gate 141 138 139 0
138 -141 0
139 -141 0
-138 -139 141 0
c gate 142 -140 -141 0
-140 -142 0
-141 -142 0
140 141 142 0
c gate 143 137 142 0
137 -143 0
142 -143 0
-137 -142 143 0
c gate 144 -137 -142 0
-137 -144 0
-142 -144 0
137 142 144 0
c gate 145 -143 -144 0
-143 -145 0
-144 -145 0
143 144 145 0
c gate 146 -124 -127 0
-124 -146 0
-127 -146 0
124 127 146 0
c gate 147 11 19 0
11 -147 0
19 -147 0
-11 -19 147 0
c gate 148 13 17 0
13 -148 0
17 -148 0
-13 -17 148 0
c gate 149 12 18 0
12 -149 0
18 -149 0
-12 -18 149 0
c gate 150 148 149 0
148 -150 0
149 -150 0
-148 -149 150 0
c gate 151 -148 -149 0
-148 -151 0
-149 -151 0
148 149 151 0
c gate 152 -150 -151 0
-150 -152 0
-151 -152 0
150 151 152 0
c gate 153 147 152 0
147 -153 0
152 -153 0
-147 -152 153 0
c gate 154 -147 -152 0
-147 -154 0
-152 -154 0
147 152 154 0
c gate 155 -153 -154 0
-153 -155 0
-154 -155 0
153 154 155 0
c gate 156 -146 155 0
-146 -156 0
155 -156 0
146 -155 156 0
c gate 157 146 -155 0
146 -157 0
-155 -157 0
-146 155 157 0
c gate 158 -156 -157 0
-156 -158 0
-157 -158 0
156 157 158 0
c gate 159 145 158 0
145 -159 0
158 -159 0
-145 -158 159 0
c gate 160 -145 -158 0
-145 -160 0
-158 -160 0
145 158 160 0
c gate 161 -159 -160 0
-159 -161 0
-160 -161 0
159 160 161 0
c gate 162 -136 161 0
-136 -162 0
161 -162 0
136 -161 162 0
c gate 163 86 -88 0
86 -163 0
-88 -163 0
-86 88 163 0
c gate 164 -89 -163 0
-89 -164 0
-163 -164 0
89 163 164 0
c gate 165 136 -161 0
136 -165 0
-161 -165 0
-136 161 165 0
c gate 166 -162 -165 0
-162 -166 0
-165 -166 0
162 165 166 0
c gate 167 164 166 0
164 -167 0
166 -167 0
-164 -166 167 0
c gate 168 -162 -167 0
-162 -168 0
-167 -168 0
162 167 168 0
c gate 169 -64 -67 0
-64 -169 0
-67 -169 0
64 67 169 0
c gate 170 6 25 0
6 -170 0
25 -170 0
-6 -25 170 0
c gate 171 8 23 0
8 -171 0
23 -171 0
-8 -23 171 0
c gate 172 7 24 0
7 -172 0
24 -172 0
-7 -24 172 0
c gate 173 171 172 0
171 -173 0
172 -173 0
-171 -172 173 0
c gate 174 -171 -172 0
-171 -174 0
-172 -174 0
171 172 174 0
c gate 175 -173 -174 0
-173 -175 0
-174 -175 0
173 174 175 0
c gate 176 170 175 0
170 -176 0
175 -176 0
-170 -175 176 0
c gate 177 -170 -175 0
-170 -177 0
-175 -177 0
170 175 177 0
c gate 178 -176 -177 0
-176 -178 0
-177 -178 0
176 177 178 0
c gate 179 -141 -143 0
-141 -179 0
-143 -179 0
141 143 179 0
c gate 180 178 -179 0
178 -180 0
-179 -180 0
-178 179 180 0
c gate 181 -178 179 0
-178 -181 0
179 -181 0
178 -179 181 0
c gate 182 -180 -181 0
-180 -182 0
-181 -182 0
180 181 182 0
c gate 183 -169 182 0
-169 -183 0
182 -183 0
169 -182 183 0
c gate 184 169 -182 0
169 -184 0
-182 -184 0
-169 182 184 0
c gate 185 -183 -184 0
-183 -185 0
-184 -185 0
183 184 185 0
c gate 186 -156 -159 0
-156 -186 0
-159 -186 0
156 159 186 0
c gate 187 9 22 0
9 -187 0
22 -187 0
-9 -22 187 0
c gate 188 11 20 0
11 -188 0
20 -188 0
-11 -20 188 0
c gate 189 10 21 0
10 -189 0
21 -189 0
-10 -21 189 0
c gate 190 -188 -189 0
-188 -190 0
-189 -190 0
188 189 190 0
c gate 191 188 189 0
188 -191 0
189 -191 0
-188 -189 191 0
c gate 192 -190 -191 0
-190 -192 0
-191 -192 0
190 191 192 0
c gate 193 187 192 0
187 -193 0
192 -193 0
-187 -192 193 0
c gate 194 -187 -192 0
-187 -194 0
-192 -194 0
187 192 194 0
c gate 195 -193 -194 0
-193 -195 0
-194 -195 0
193 194 195 0
c gate 196 -150 -153 0
-150 -196 0
-153 -196 0
150 153 196 0
c gate 197 12 19 0
12 -197 0
19 -197 0
-12 -19 197 0
c gate 198 14 17 0
14 -198 0
17 -198 0
-14 -17 198 0
c gate 199 13 18 0
13 -199 0
18 -199 0
-13 -18 199 0
c gate 200 198 199 0
198 -200 0
199 -200 0
-198 -199 200 0
c gate 201 -198 -199 0
-198 -201 0
-199 -201 0
198 199 201 0
c gate 202 -200 -201 0
-200 -202 0
-201 -202 0
200 201 202 0
c gate 203 197 202 0
197 -203 0
202 -203 0
-197 -202 203 0
c gate 204 -197 -202 0
-197 -204 0
-202 -204 0
197 202 204 0
c gate 205 -203 -204 0
-203 -205 0
-204 -205 0
203 204 205 0
c gate 206 -196 205 0
-196 -206 0
205 -206 0
196 -205 206 0
c gate 207 196 -205 0
196 -207 0
-205 -207 0
-196 205 207 0
c gate 208 -206 -207 0
-206 -208 0
-207 -208 0
206 207 208 0
c gate 209 195 208 0
195 -209 0
208 -209 0
-195 -208 209 0
c gate 210 -195 -208 0
-195 -210 0
-208 -210 0
195 208 210 0
c gate 211 -209 -210 0
-209 -211 0
-210 -211 0
209 210 211 0
c gate 212 -186 211 0
-186 -212 0
211 -212 0
186 -211 212 0
c gate 213 186 -211 0
186 -213 0
-211 -213 0
-186 211 213 0
c gate 214 -212 -213 0
-212 -214 0
-213 -214 0
212 213 214 0
c gate 215 185 214 0
185 -215 0
214 -215 0
-185 -214 215 0
c gate 216 -185 -214 0
-185 -216 0
-214 -216 0
185 214 216 0
c gate 217 -215 -216 0
-215 -217 0
-216 -217 0
215 216 217 0
c gate 218 -168 217 0
-168 -218 0
217 -218 0
168 -217 218 0
c gate 219 107 -109 0
107 -219 0
-109 -219 0
-107 109 219 0
c gate 220 -110 -219 0
-110 -220 0
-219 -220 0
110 219 220 0
c gate 221 168 -217 0
168 -221 0
-217 -221 0
-168 217 221 0
c gate 222 -218 -221 0
-218 -222 0
-221 -222 0
218 221 222 0
c gate 223 220 222 0
220 -223 0
222 -223 0
-220 -222 223 0
c gate 224 -218 -223 0
-218 -224 0
-223 -224 0
218 223 224 0
c gate 225 -55 -58 0
-55 -225 0
-58 -225 0
55 58 225 0
c gate 226 1 31 0
1 -226 0
31 -226 0
-1 -31 226 0
c gate 227 3 29 0
3 -227 0
29 -227 0
-3 -29 227 0
c gate 228 2 30 0
2 -228 0
30 -228 0
-2 -30 228 0
c gate 229 -227 -228 0
-227 -229 0
-228 -229 0
227 228 229 0
c gate 230 227 228 0
227 -230 0
228 -230 0
-227 -228 230 0
c gate 231 -229 -230 0
-229 -231 0
-230 -231 0
229 230 231 0
c gate 232 226 231 0
226 -232 0
231 -232 0
-226 -231 232 0
c gate 233 -226 -231 0
-226 -233 0
-231 -233 0
226 231 233 0
c gate 234 -232 -233 0
-232 -234 0
-233 -234 0
232 233 234 0
c gate 235 -49 -52 0
-49 -235 0
-52 -235 0
49 52 235 0
c gate 236 4 28 0
4 -236 0
28 -236 0
-4 -28 236 0
c gate 237 6 26 0
6 -237 0
26 -237 0
-6 -26 237 0
c gate 238 5 27 0
5 -238 0
27 -238 0
-5 -27 238 0
c gate 239 237 238 0
237 -239 0
238 -239 0
-237 -238 239 0
c gate 240 -237 -238 0
-237 -240 0
-238 -240 0
237 238 240 0
c gate 241 -239 -240 0
-239 -241 0
-240 -241 0
239 240 241 0
c gate 242 236 241 0
236 -242 0
241 -242 0
-236 -241 242 0
c gate 243 -236 -241 0
-236 -243 0
-241 -243 0
236 241 243 0
c gate 244 -242 -243 0
-242 -244 0
-243 -244 0
242 243 244 0
c gate 245 -235 244 0
-235 -245 0
244 -245 0
235 -244 245 0
c gate 246 235 -244 0
235 -246 0
-244 -246 0
-235 244 246 0
c gate 247 -245 -246 0
-245 -247 0
-246 -247 0
245 246 247 0
c gate 248 234 247 0
234 -248 0
247 -248 0
-234 -247 248 0
c gate 249 -234 -247 0
-234 -249 0
-247 -249 0
234 247 249 0
c gate 250 -248 -249 0
-248 -250 0
-249 -250 0
248 249 250 0
c gate 251 -180 -183 0
-180 -251 0
-183 -251 0
180 183 251 0
c gate 252 250 -251 0
250 -252 0
-251 -252 0
-250 251 252 0
c gate 253 -250 251 0
-250 -253 0
251 -253 0
250 -251 253 0
c gate 254 -252 -253 0
-252 -254 0
-253 -254 0
252 253 254 0
c gate 255 -225 254 0
-225 -255 0
254 -255 0
225 -254 255 0
c gate 256 225 -254 0
225 -256 0
-254 -256 0
-225 254 256 0
c gate 257 -255 -256 0
-255 -257 0
-256 -257 0
255 256 257 0
c gate 258 -212 -215 0
-212 -258 0
-215 -258 0
212 215 258 0
c gate 259 -173 -176 0
-173 -259 0
-176 -259 0
173 176 259 0
c gate 260 7 25 0
7 -260 0
25 -260 0
-7 -25 260 0
c gate 261 9 23 0
9 -261 0
23 -261 0
-9 -23 261 0
c gate 262 8 24 0
8 -262 0
24 -262 0
-8 -24 262 0
c gate 263 261 262 0
261 -263 0
262 -263 0
-261 -262 263 0
c gate 264 -261 -262 0
-261 -264 0
-262 -264 0
261 262 264 0
c gate 265 -263 -264 0
-263 -265 0
-264 -265 0
263 264 265 0
c gate 266 260 265 0
260 -266 0
265 -266 0
-260 -265 266 0
c gate 267 -260 -265 0
-260 -267 0
-265 -267 0
260 265 267 0
c gate 268 -266 -267 0
-266 -268 0
-267 -268 0
266 267 268 0
c gate 269 -191 -193 0
-191 -269 0
-193 -269 0
191 193 269 0
c gate 270 268 -269 0
268 -270 0
-269 -270 0
-268 269 270 0
c gate 271 -268 269 0
-268 -271 0
269 -271 0
268 -269 271 0
c gate 272 -270 -271 0
-270 -272 0
-271 -272 0
270 271 272 0
c gate 273 -259 272 0
-259 -273 0
272 -273 0
259 -272 273 0
c gate 274 259 -272 0
259 -274 0
-272 -274 0
-259 272 274 0
c gate 275 -273 -274 0
-273 -275 0
-274 -275 0
273 274 275 0
c gate 276 -206 -209 0
-206 -276 0
-209 -276 0
206 209 276 0
c gate 277 10 22 0
10 -277 0
22 -277 0
-10 -22 277 0
c gate 278 12 20 0
12 -278 0
20 -278 0
-12 -20 278 0
c gate 279 11 21 0
11 -279 0
21 -279 0
-11 -21 279 0
c gate 280 -278 -279 0
-278 -280 0
-279 -280 0
278 279 280 0
c gate 281 278 279 0
278 -281 0
279 -281 0
-278 -279 281 0
c gate 282 -280 -281 0
-280 -282 0
-281 -282 0
280 281 282 0
c gate 283 277 282 0
277 -283 0
282 -283 0
-277 -282 283 0
c gate 284 -277 -282 0
-277 -284 0
-282 -284 0
277 282 284 0
c gate 285 -283 -284 0
-283 -285 0
-284 -285 0
283 284 285 0
c gate 286 -200 -203 0
-200 -286 0
-203 -286 0
200 203 286 0
c gate 287 13 19 0
13 -287 0
19 -287 0
-13 -19 287 0
c gate 288 15 17 0
15 -288 0
17 -288 0
-15 -17 288 0
c gate 289 14 18 0
14 -289 0
18 -289 0
-14 -18 289 0
c gate 290 288 289 0
288 -290 0
289 -290 0
-288 -289 290 0
c gate 291 -288 -289 0
-288 -291 0
-289 -291 0
288 289 291 0
c gate 292 -290 -291 0
-290 -292 0
-291 -292 0
290 291 292 0
c gate 293 287 292 0
287 -293 0
292 -293 0
-287 -292 293 0
c gate 294 -287 -292 0
-287 -294 0
-292 -294 0
287 292 294 0
c gate 295 -293 -294 0
-293 -295 0
-294 -295 0
293 294 295 0
c gate 296 -286 295 0
-286 -296 0
295 -296 0
286 -295 296 0
c gate 297 286 -295 0
286 -297 0
-295 -297 0
-286 295 297 0
c gate 298 -296 -297 0
-296 -298 0
-297 -298 0
296 297 298 0
c gate 299 285 298 0
285 -299 0
298 -299 0
-285 -298 299 0
c gate 300 -285 -298 0
-285 -300 0
-298 -300 0
285 298 300 0
c gate 301 -299 -300 0
-299 -301 0
-300 -301 0
299 300 301 0
c gate 302 -276 301 0
-276 -302 0
301 -302 0
276 -301 302 0
c gate 303 276 -301 0
276 -303 0
-301 -303 0
-276 301 303 0
c gate 304 -302 -303 0
-302 -304 0
-303 -304 0
302 303 304 0
c gate 305 275 304 0
275 -305 0
304 -305 0
-275 -304 305 0
c gate 306 -275 -304 0
-275 -306 0
-304 -306 0
275 304 306 0
c gate 307 -305 -306 0
-305 -307 0
-306 -307 0
305 306 307 0
c gate 308 -258 307 0
-258 -308 0
307 -308 0
258 -307 308 0
c gate 309 258 -307 0
258 -309 0
-307 -309 0
-258 307 309 0
c gate 310 -308 -309 0
-308 -310 0
-309 -310 0
308 309 310 0
c gate 311 257 310 0
257 -311 0
310 -311 0
-257 -310 311 0
c gate 312 -257 -310 0
-257 -312 0
-310 -312 0
257 310 312 0
c gate 313 -311 -312 0
-311 -313 0
-312 -313 0
311 312 313 0
c gate 314 -224 313 0
-224 -314 0
313 -314 0
224 -313 314 0
c gate 315 -35 111 0
-35 -315 0
111 -315 0
35 -111 315 0
c gate 316 -112 -315 0
-112 -316 0
-315 -316 0
112 315 316 0
c gate 317 224 -313 0
224 -317 0
-313 -317 0
-224 313 317 0
c gate 318 -314 -317 0
-314 -318 0
-317 -318 0
314 317 318 0
c gate 319 316 318 0
316 -319 0
318 -319 0
-316 -318 319 0
c gate 320 -314 -319 0
-314 -320 0
-319 -320 0
314 319 320 0
c gate 321 1 32 0
1 -321 0
32 -321 0
-1 -32 321 0
c gate 322 -230 -232 0
-230 -322 0
-232 -322 0
230 232 322 0
c gate 323 -252 -255 0
-252 -323 0
-255 -323 0
252 255 323 0
c gate 324 -322 -323 0
-322 -324 0
-323 -324 0
322 323 324 0
c gate 325 322 323 0
322 -325 0
323 -325 0
-322 -323 325 0
c gate 326 -324 -325 0
-324 -326 0
-325 -326 0
324 325 326 0
c gate 327 321 326 0
321 -327 0
326 -327 0
-321 -326 327 0
c gate 328 -321 -326 0
-321 -328 0
-326 -328 0
321 326 328 0
c gate 329 -327 -328 0
-327 -329 0
-328 -329 0
327 328 329 0
c gate 330 -308 -311 0
-308 -330 0
-311 -330 0
308 311 330 0
c gate 331 -245 -248 0
-245 -331 0
-248 -331 0
245 248 331 0
c gate 332 2 31 0
2 -332 0
31 -332 0
-2 -31 332 0
c gate 333 4 29 0
4 -333 0
29 -333 0
-4 -29 333 0
c gate 334 3 30 0
3 -334 0
30 -334 0
-3 -30 334 0
c gate 335 -333 -334 0
-333 -335 0
-334 -335 0
333 334 335 0
c gate 336 333 334 0
333 -336 0
334 -336 0
-333 -334 336 0
c gate 337 -335 -336 0
-335 -337 0
-336 -337 0
335 336 337 0
c gate 338 332 337 0
332 -338 0
337 -338 0
-332 -337 338 0
c gate 339 -332 -337 0
-332 -339 0
-337 -339 0
332 337 339 0
c gate 340 -338 -339 0
-338 -340 0
-339 -340 0
338 339 340 0
c gate 341 -239 -242 0
-239 -341 0
-242 -341 0
239 242 341 0
c gate 342 5 28 0
5 -342 0
28 -342 0
-5 -28 342 0
c gate 343 7 26 0
7 -343 0
26 -343 0
-7 -26 343 0
c gate 344 6 27 0
6 -344 0
27 -344 0
-6 -27 344 0
c gate 345 343 344 0
343 -345 0
344 -345 0
-343 -344 345 0
c gate 346 -343 -344 0
-343 -346 0
-344 -346 0
343 344 346 0
c gate 347 -345 -346 0
-345 -347 0
-346 -347 0
345 346 347 0
c gate 348 342 347 0
342 -348 0
347 -348 0
-342 -347 348 0
c gate 349 -342 -347 0
-342 -349 0
-347 -349 0
342 347 349 0
c gate 350 -348 -349 0
-348 -350 0
-349 -350 0
348 349 350 0
c gate 351 -341 350 0
-341 -351 0
350 -351 0
341 -350 351 0
c gate 352 341 -350 0
341 -352 0
-350 -352 0
-341 350 352 0
c gate 353 -351 -352 0
-351 -353 0
-352 -353 0
351 352 353 0
c gate 354 340 353 0
340 -354 0
353 -354 0
-340 -353 354 0
c gate 355 -340 -353 0
-340 -355 0
-353 -355 0
340 353 355 0
c gate 356 -354 -355 0
-354 -356 0
-355 -356 0
354 355 356 0
c gate 357 -270 -273 0
-270 -357 0
-273 -357 0
270 273 357 0
c gate 358 356 -357 0
356 -358 0
-357 -358 0
-356 357 358 0
c gate 359 -356 357 0
-356 -359 0
357 -359 0
356 -357 359 0
c gate 360 -358 -359 0
-358 -360 0
-359 -360 0
358 359 360 0
c gate 361 -331 360 0
-331 -361 0
360 -361 0
331 -360 361 0
c gate 362 331 -360 0
331 -362 0
-360 -362 0
-331 360 362 0
c gate 363 -361 -362 0
-361 -363 0
-362 -363 0
361 362 363 0
c gate 364 -302 -305 0
-302 -364 0
-305 -364 0
302 305 364 0
c gate 365 -263 -266 0
-263 -365 0
-266 -365 0
263 266 365 0
c gate 366 8 25 0
8 -366 0
25 -366 0
-8 -25 366 0
c gate 367 10 23 0
10 -367 0
23 -367 0
-10 -23 367 0
c gate 368 9 24 0
9 -368 0
24 -368 0
-9 -24 368 0
c gate 369 367 368 0
367 -369 0
368 -369 0
-367 -368 369 0
c gate 370 -367 -368 0
-367 -370 0
-368 -370 0
367 368 370 0
c gate 371 -369 -370 0
-369 -371 0
-370 -371 0
369 370 371 0
c gate 372 366 371 0
366 -372 0
371 -372 0
-366 -371 372 0
c gate 373 -366 -371 0
-366 -373 0
-371 -373 0
366 371 373 0
c gate 374 -372 -373 0
-372 -374 0
-373 -374 0
372 373 374 0
c gate 375 -281 -283 0
-281 -375 0
-283 -375 0
281 283 375 0
c gate 376 374 -375 0
374 -376 0
-375 -376 0
-374 375 376 0
c gate 377 -374 375 0
-374 -377 0
375 -377 0
374 -375 377 0
c gate 378 -376 -377 0
-376 -378 0
-377 -378 0
376 377 378 0
c gate 379 -365 378 0
-365 -379 0
378 -379 0
365 -378 379 0
c gate 380 365 -378 0
365 -380 0
-378 -380 0
-365 378 380 0
c gate 381 -379 -380 0
-379 -381 0
-380 -381 0
379 380 381 0
c gate 382 -296 -299 0
-296 -382 0
-299 -382 0
296 299 382 0
c gate 383 11 22 0
11 -383 0
22 -383 0
-11 -22 383 0
c gate 384 13 20 0
13 -384 0
20 -384 0
-13 -20 384 0
c gate 385 12 21 0
12 -385 0
21 -385 0
-12 -21 385 0
c gate 386 -384 -385 0
-384 -386 0
-385 -386 0
384 385 386 0
c gate 387 384 385 0
384 -387 0
385 -387 0
-384 -385 387 0
c gate 388 -386 -387 0
-386 -388 0
-387 -388 0
386 387 388 0
c gate 389 383 388 0
383 -389 0
388 -389 0
-383 -388 389 0
c gate 390 -383 -388 0
-383 -390 0
-388 -390 0
383 388 390 0
c gate 391 -389 -390 0
-389 -391 0
-390 -391 0
389 390 391 0
c gate 392 -290 -293 0
-290 -392 0
-293 -392 0
290 293 392 0
c gate 393 14 19 0
14 -393 0
19 -393 0
-14 -19 393 0
c gate 394 15 18 0
15 -394 0
18 -394 0
-15 -18 394 0
c gate 395 16 17 0
16 -395 0
17 -395 0
-16 -17 395 0
c gate 396 394 395 0
394 -396 0
395 -396 0
-394 -395 396 0
c gate 397 -394 -395 0
-394 -397 0
-395 -397 0
394 395 397 0
c gate 398 -396 -397 0
-396 -398 0
-397 -398 0
396 397 398 0
c gate 399 393 398 0
393 -399 0
398 -399 0
-393 -398 399 0
c gate 400 -393 -398 0
-393 -400 0
-398 -400 0
393 398 400 0
c gate 401 -399 -400 0
-399 -401 0
-400 -401 0
399 400 401 0
c gate 402 -392 401 0
-392 -402 0
401 -402 0
392 -401 402 0
c gate 403 392 -401 0
392 -403 0
-401 -403 0
-392 401 403 0
c gate 404 -402 -403 0
-402 -404 0
-403 -404 0
402 403 404 0
c gate 405 391 404 0
391 -405 0
404 -405 0
-391 -404 405 0
c gate 406 -391 -404 0
-391 -406 0
-404 -406 0
391 404 406 0
c gate 407 -405 -406 0
-405 -407 0
-406 -407 0
405 406 407 0
c gate 408 -382 407 0
-382 -408 0
407 -408 0
382 -407 408 0
c gate 409 382 -407 0
382 -409 0
-407 -409 0
-382 407 409 0
c gate 410 -408 -409 0
-408 -410 0
-409 -410 0
408 409 410 0
c gate 411 381 410 0
381 -411 0
410 -411 0
-381 -410 411 0
c gate 412 -381 -410 0
-381 -412 0
-410 -412 0
381 410 412 0
c gate 413 -411 -412 0
-411 -413 0
-412 -413 0
411 412 413 0
c gate 414 -364 413 0
-364 -414 0
413 -414 0
364 -413 414 0
c gate 415 364 -413 0
364 -415 0
-413 -415 0
-364 413 415 0
c gate 416 -414 -415 0
-414 -416 0
-415 -416 0
414 415 416 0
c gate 417 363 416 0
363 -417 0
416 -417 0
-363 -416 417 0
c gate 418 -363 -416 0
-363 -418 0
-416 -418 0
363 416 418 0
c gate 419 -417 -418 0
-417 -419 0
-418 -419 0
417 418 419 0
c gate 420 -330 419 0
-330 -420 0
419 -420 0
330 -419 420 0
c gate 421 330 -419 0
330 -421 0
-419 -421 0
-330 419 421 0
c gate 422 -420 -421 0
-420 -422 0
-421 -422 0
420 421 422 0
c gate 423 329 422 0
329 -423 0
422 -423 0
-329 -422 423 0
c gate 424 -329 -422 0
-329 -424 0
-422 -424 0
329 422 424 0
c gate 425 -423 -424 0
-423 -425 0
-424 -425 0
423 424 425 0
c gate 426 -320 425 0
-320 -426 0
425 -426 0
320 -425 426 0
c gate 427 320 -425 0
320 -427 0
-425 -427 0
-320 425 427 0
c gate 428 -426 -427 0
-426 -428 0
-427 -428 0
426 427 428 0
c gate 429 112 428 0
112 -429 0
428 -429 0
-112 -428 429 0
c PO
429 0
